SCIP version 5.0.0 [precision: 8 byte] [memory: block] [mode: optimized] [LP solver: NONE] [GitHash: 3bbd232]
Copyright (C) 2002-2017 Konrad-Zuse-Zentrum fuer Informationstechnik Berlin (ZIB)

External codes: 
  Readline EditLine w  GNU library for command line editing (gnu.org/s/readline)
  CppAD 20160000.1     Algorithmic Differentiation of C++ algorithms developed by B. Bell (www.coin-or.org/CppAD)
  ZLIB 1.2.5           General purpose compression library by J. Gailly and M. Adler (zlib.net)
  GMP 6.1.2            GNU Multiple Precision Arithmetic Library developed by T. Granlund (gmplib.org)

user parameter file <scip.set> not found - using default parameters

read problem <../../Split_data/output/breast/7/1_sample_breast.logreg>
============

File name	:	../../Split_data/output/breast/7/1_sample_breast.logreg
Problem name 	:	1_sample_breast
Number of data	:	155
Number of var	:	33
The given data has linear independence

[dim=1] time: 0.004819
[dim=2] time: 0.009071
[dim=3] time: 0.013092
[dim=4] time: 0.016837
[dim=5] time: 0.020669
[dim=6] time: 0.024671
[dim=7] time: 0.028538
[dim=8] time: 0.031914
[dim=9] time: 0.03577
[dim=10] time: 0.040157
[dim=11] time: 0.044637
[dim=12] time: 0.047959
[dim=13] time: 0.05149
[dim=14] time: 0.054581
[dim=15] time: 0.057697
[dim=16] time: 0.060249
[dim=17] Time of forward = 0.063547sec.
AIC: 105.034
k: 16

[dim=33] time: 0.017345
[dim=32] time: 0.03587
[dim=31] time: 0.049193
[dim=30] time: 0.062333
[dim=29] time: 0.074323
[dim=28] time: 0.087971
[dim=27] time: 0.09767
[dim=26] time: 0.104414
[dim=25] time: 0.112438
[dim=24] time: 0.121799
[dim=23] time: 0.133608
[dim=22] time: 0.140437
[dim=21] time: 0.147065
[dim=20] time: 0.152697
[dim=19] Time of backward = 0.158255sec.
AIC: 101.467
k: 20
